(set-logic ALL)
(set-option :produce-models true)
(declare-sort BoundSet 0)
(declare-sort UnboundSet 0)
(set-option :finite-model-find true)
(declare-fun IsInCoats (BoundSet) Bool)
(declare-fun Kiss (BoundSet) Bool)
(declare-fun IsOnSideOfRoad (BoundSet) Bool)
(declare-fun ShowAppreciation (BoundSet BoundSet) Bool)
(assert (not (=> (and (exists ((a BoundSet)) (and (IsInCoats a) (and (Kiss a) (IsOnSideOfRoad a)))) (forall ((i BoundSet)) (forall ((h BoundSet)) (forall ((g BoundSet)) (=> (Kiss g) (ShowAppreciation h i)))))) (exists ((e BoundSet)) (exists ((f BoundSet)) (ShowAppreciation e f))))))
(check-sat)
(get-model)